Maximize
  0 x0 + 0 x1 - 11 x2 + 0 x3 + 0 x4 - 27 x5 + 0 x6 + 0 x7 + 0 x8 - 49 x9
   + 0 x10 + 0 x11 + 0 x12 + 0 x13 + 0 x14 + 0 x15 + 0 x16 - 41 x17 + 0 x18
   + 0 x19 - 13 x20 + 0 x21 + 0 x22 + 0 x23 + 0 x24 + 27 x25 + 0 x26
   + 0 x27 + 0 x28 + 0 x29 + 10 x30 + 0 x31 + 0 x32 + 0 x33 + 0 x34 + 0 x35
   + 0 x36 + 0 x37 + 0 x38 + 0 x39 + 0 x40 + 0 x41 + 0 x42 + 0 x43 - 36 x44
   + 0 x45 + 0 x46 + 0 x47 + 0 x48 + 0 x49 + 0 x50 + 0 x51 + 17 x52 + 0 x53
   - 49 x54 + 0 x55 + 0 x56 + 0 x57 + 35 x58 - 34 x59 + 0 x60 + 0 x61
   + 0 x62 + 0 x63 + 0 x64 + 0 x65 + 0 x66 + 0 x67 + 0 x68 + 0 x69 + 0 x70
   + 0 x71 + 0 x72 - 5 x73 + 48 x74 + 0 x75 - 38 x76 + 0 x77 + 0 x78
   + 46 x79 + 0 x80 + 0 x81 + 0 x82 - 35 x83 + 0 x84 + 0 x85 + 0 x86
   + 4 x87 + 38 x88 + 0 x89 + 0 x90 - 32 x91 + 0 x92 + 25 x93 + 0 x94
   + 0 x95 - 18 x96 + 0 x97 + 0 x98 + 0 x99 + [ - 40 x0 * x1 + 12 x0 * x2
   - 90 x0 * x7 - 56 x0 * x18 + 84 x0 * x21 - 98 x0 * x26 - 12 x0 * x27
   + 2 x0 * x28 - 32 x0 * x35 - 82 x0 * x37 - 82 x0 * x47 + 46 x0 * x51
   - 82 x0 * x53 - 14 x0 * x54 - 82 x0 * x56 + 2 x0 * x60 + 6 x0 * x64
   - 24 x0 * x65 + 2 x0 * x67 + 86 x0 * x71 + 46 x0 * x76 - 50 x0 * x83
   + 36 x0 * x84 - 20 x0 * x90 + 92 x0 * x92 - 82 x0 * x93 + 42 x0 * x98
   - 40 x1 * x4 + 10 x1 * x9 - 12 x1 * x15 - 96 x1 * x31 - 82 x1 * x43
   - 6 x1 * x48 + 76 x1 * x50 - 18 x1 * x60 + 24 x1 * x69 + 34 x1 * x75
   + 44 x1 * x78 - 16 x1 * x79 - 32 x1 * x81 + 72 x1 * x83 - 2 x1 * x93
   + 36 x1 * x94 + 64 x1 * x99 + 32 x2 ^2 + 72 x2 * x5 - 90 x2 * x7
   - 64 x2 * x14 - 60 x2 * x28 - 66 x2 * x32 + 14 x2 * x43 - 82 x2 * x46
   - 54 x2 * x60 + 50 x2 * x64 - 62 x2 * x68 + 68 x2 * x70 - 36 x2 * x72
   + 32 x2 * x76 - 86 x2 * x77 + 56 x2 * x79 - 16 x2 * x80 + 2 x2 * x90
   - 96 x2 * x94 - 28 x2 * x95 + 14 x2 * x96 + 2 x2 * x98 - 86 x3 * x9
   + 10 x3 * x15 + 72 x3 * x16 + 82 x3 * x18 + 82 x3 * x19 - 50 x3 * x29
   + 18 x3 * x33 + 28 x3 * x34 + 26 x3 * x37 - 42 x3 * x42 + 70 x3 * x43
   - 16 x3 * x45 + 68 x3 * x50 - 32 x3 * x51 + 84 x3 * x53 + 16 x3 * x54
   - 70 x3 * x60 + 50 x3 * x74 - 84 x3 * x75 + 10 x3 * x78 + 66 x3 * x82
   - 62 x3 * x86 + 36 x3 * x88 - 50 x3 * x90 - 14 x3 * x92 - 94 x3 * x93
   - 90 x3 * x94 - 26 x4 * x8 + 78 x4 * x10 + 38 x4 * x11 - 56 x4 * x23
   - 76 x4 * x28 + 6 x4 * x29 - 90 x4 * x39 + 8 x4 * x47 + 40 x4 * x49
   + 86 x4 * x50 + 24 x4 * x57 - 14 x4 * x58 - 98 x4 * x59 - 82 x4 * x69
   - 88 x4 * x71 - 36 x4 * x83 - 4 x4 * x86 + 78 x4 * x88 + 90 x4 * x93
   + 82 x4 * x98 - 56 x5 * x6 + 84 x5 * x8 - 92 x5 * x16 - 12 x5 * x25
   - 50 x5 * x35 - 72 x5 * x36 + 78 x5 * x37 + 94 x5 * x43 - 86 x5 * x45
   + 50 x5 * x52 - 8 x5 * x53 - 10 x5 * x57 - 42 x5 * x61 + 20 x5 * x63
   + 6 x5 * x64 - 74 x5 * x65 + 10 x5 * x73 - 58 x5 * x78 - 34 x5 * x80
   - 54 x5 * x82 + 70 x5 * x87 + 2 x5 * x96 + 90 x5 * x98 - 4 x6 * x12
   + 70 x6 * x13 - 54 x6 * x17 - 16 x6 * x19 + 8 x6 * x20 - 30 x6 * x27
   - 14 x6 * x30 - 98 x6 * x31 - 86 x6 * x35 + 86 x6 * x41 - 94 x6 * x43
   + 68 x6 * x48 - 86 x6 * x49 - 10 x6 * x53 - 36 x6 * x55 + 88 x6 * x61
   + 18 x6 * x64 + 16 x6 * x66 + 50 x6 * x68 - 86 x6 * x83 + 34 x6 * x94
   - 12 x6 * x98 - 49 x7 ^2 + 68 x7 * x15 + 94 x7 * x16 - 18 x7 * x26
   - 2 x7 * x31 - 50 x7 * x32 + 22 x7 * x33 - 74 x7 * x36 + 40 x7 * x44
   - 62 x7 * x45 - 80 x7 * x49 - 48 x7 * x51 - 62 x7 * x58 + 50 x7 * x60
   - 26 x7 * x64 + 2 x7 * x65 - 38 x7 * x72 - 84 x7 * x76 - 46 x7 * x77
   - 16 x7 * x78 + 6 x7 * x80 - 32 x7 * x81 + 40 x7 * x82 - 38 x7 * x83
   - 32 x7 * x97 - 58 x8 * x14 - 44 x8 * x20 + 66 x8 * x27 - 2 x8 * x28
   + 70 x8 * x31 + 38 x8 * x44 - 82 x8 * x46 - 28 x8 * x50 + 6 x8 * x55
   + 52 x8 * x56 + 50 x8 * x57 + 38 x8 * x58 + 34 x8 * x65 - 98 x8 * x75
   + 96 x8 * x77 - 54 x8 * x79 + 24 x8 * x86 - 40 x8 * x88 - 48 x8 * x91
   + 4 x9 * x14 - 8 x9 * x17 - 30 x9 * x18 + 48 x9 * x22 + 18 x9 * x26
   - 90 x9 * x31 + 44 x9 * x34 + 2 x9 * x36 + 94 x9 * x42 - 78 x9 * x53
   - 92 x9 * x54 + 4 x9 * x56 - 26 x9 * x63 - 4 x9 * x66 - 50 x9 * x71
   + 28 x9 * x72 - 20 x9 * x73 - 94 x9 * x81 + 24 x9 * x82 - 80 x9 * x83
   + 94 x9 * x86 + 48 x9 * x88 + 80 x9 * x89 + 66 x9 * x91 + 70 x9 * x93
   + 50 x9 * x96 - 74 x9 * x97 + 34 x10 ^2 + 66 x10 * x11 + 70 x10 * x14
   + 10 x10 * x15 + 80 x10 * x16 - 34 x10 * x22 - 76 x10 * x26
   - 48 x10 * x27 + 56 x10 * x32 - 48 x10 * x33 + 18 x10 * x41
   + 10 x10 * x44 - 92 x10 * x45 - 70 x10 * x51 - 80 x10 * x60
   - 86 x10 * x67 - 92 x10 * x70 - 78 x10 * x74 - 86 x10 * x81
   + 20 x10 * x84 + 94 x10 * x92 - 92 x10 * x93 - 18 x10 * x96 + 35 x11 ^2
   - 82 x11 * x21 + 24 x11 * x22 + 58 x11 * x26 + 34 x11 * x27
   - 14 x11 * x29 - 8 x11 * x33 + 70 x11 * x36 - 72 x11 * x40
   + 68 x11 * x43 - 98 x11 * x44 + 18 x11 * x49 - 14 x11 * x50
   - 82 x11 * x54 - 28 x11 * x56 - 92 x11 * x59 - 60 x11 * x60
   - 14 x11 * x62 + 8 x11 * x66 - 22 x11 * x67 - 14 x11 * x69
   + 40 x11 * x72 - 46 x11 * x74 - 52 x11 * x75 + 12 x12 ^2 + 18 x12 * x13
   + 28 x12 * x19 - 70 x12 * x26 + 92 x12 * x30 - 50 x12 * x32
   + 18 x12 * x33 - 44 x12 * x35 + 2 x12 * x44 - 92 x12 * x48
   + 54 x12 * x50 - 88 x12 * x53 - 88 x12 * x60 + 30 x12 * x61
   - 28 x12 * x63 - 78 x12 * x69 - 28 x12 * x76 + 56 x12 * x82
   + 70 x12 * x84 - 82 x12 * x88 - 68 x13 * x15 - 96 x13 * x18
   - 10 x13 * x21 + 52 x13 * x25 + 64 x13 * x27 + 16 x13 * x28
   - 94 x13 * x45 + 54 x13 * x59 + 86 x13 * x64 - 78 x13 * x69
   + 92 x13 * x70 + 74 x13 * x72 - 92 x13 * x90 + 16 x14 * x17
   - 68 x14 * x19 - 24 x14 * x21 + 76 x14 * x25 + 68 x14 * x32
   + 94 x14 * x34 - 90 x14 * x39 - 26 x14 * x49 - 46 x14 * x51
   + 72 x14 * x57 - 64 x14 * x58 + 30 x14 * x63 - 2 x14 * x65
   - 22 x14 * x71 + 20 x14 * x83 + 32 x14 * x86 + 18 x14 * x89
   + 58 x14 * x96 - 98 x15 * x16 - 20 x15 * x23 + 4 x15 * x26
   + 92 x15 * x29 - 82 x15 * x33 - 10 x15 * x39 + 46 x15 * x42
   + 74 x15 * x44 + 14 x15 * x57 - 54 x15 * x61 - 90 x15 * x62
   + 56 x15 * x63 - 86 x15 * x68 - 40 x15 * x70 + 22 x15 * x72
   + 22 x15 * x77 + 24 x15 * x88 + 52 x15 * x92 - 32 x15 * x93
   - 80 x15 * x95 - 34 x15 * x96 - 18 x16 * x17 - 60 x16 * x19
   + 18 x16 * x23 + 94 x16 * x24 + 90 x16 * x27 + 44 x16 * x36
   + 98 x16 * x48 - 28 x16 * x51 - 42 x16 * x56 - 56 x16 * x57
   - 74 x16 * x58 + 42 x16 * x60 - 82 x16 * x66 - 78 x16 * x67
   - 8 x16 * x71 - 16 x16 * x77 - 36 x16 * x80 - 64 x16 * x81
   + 22 x16 * x87 + 28 x16 * x89 - 46 x16 * x94 + 88 x16 * x96 + 21 x17 ^2
   - 46 x17 * x19 - 42 x17 * x21 - 60 x17 * x22 + 48 x17 * x25
   + 86 x17 * x30 - 48 x17 * x34 - 30 x17 * x40 + 6 x17 * x41
   + 16 x17 * x43 + 66 x17 * x44 - 12 x17 * x45 - 32 x17 * x46
   - 70 x17 * x57 - 4 x17 * x60 + 88 x17 * x63 - 38 x17 * x72
   - 82 x17 * x74 - 68 x17 * x86 - 8 x17 * x87 - 42 x17 * x90
   - 60 x18 * x23 - 4 x18 * x32 - 24 x18 * x35 - 54 x18 * x51
   + 50 x18 * x52 + 60 x18 * x60 + 60 x18 * x62 - 42 x18 * x63
   + 74 x18 * x77 + 14 x18 * x79 - 30 x18 * x92 + 4 x18 * x93
   - 54 x18 * x95 - 24 x19 * x20 - 10 x19 * x25 - 86 x19 * x27
   - 50 x19 * x31 - 76 x19 * x33 + 72 x19 * x34 - 82 x19 * x39
   - 12 x19 * x41 + 22 x19 * x42 + 80 x19 * x44 + 58 x19 * x45
   - 12 x19 * x46 - 34 x19 * x51 + 74 x19 * x62 + 16 x19 * x69
   + 96 x19 * x70 - 62 x19 * x71 + 92 x19 * x73 - 18 x19 * x80
   + 52 x19 * x83 + 56 x19 * x96 + 54 x19 * x99 - 88 x20 * x21
   - 10 x20 * x27 - 74 x20 * x35 + 42 x20 * x48 + 96 x20 * x50
   - 72 x20 * x51 + 74 x20 * x54 - 80 x20 * x59 - 54 x20 * x62
   - 52 x20 * x73 + 40 x20 * x75 + 96 x20 * x76 + 56 x20 * x79
   + 16 x20 * x81 + 30 x20 * x86 - 82 x20 * x95 - 78 x20 * x98
   + 56 x21 * x23 - 72 x21 * x33 + 22 x21 * x34 + 28 x21 * x38
   + 72 x21 * x44 - 34 x21 * x45 - 26 x21 * x58 + 62 x21 * x61
   - 62 x21 * x67 + 96 x21 * x68 + 78 x21 * x76 + 18 x21 * x81
   + 68 x21 * x84 + 16 x21 * x88 - 24 x22 * x23 + 94 x22 * x25
   - 28 x22 * x27 + 30 x22 * x28 - 44 x22 * x30 - 58 x22 * x33
   + 74 x22 * x34 + 60 x22 * x39 - 58 x22 * x46 + 26 x22 * x50
   + 16 x22 * x52 + 86 x22 * x55 + 24 x22 * x58 - 96 x22 * x60
   - 24 x22 * x61 - 32 x22 * x65 + 72 x22 * x67 + 42 x22 * x69
   + 78 x22 * x74 - 84 x22 * x80 - 16 x22 * x83 + 52 x22 * x84
   + 22 x22 * x92 - 50 x22 * x93 + 26 x22 * x94 - 6 x22 * x97 + 6 x22 * x98
   + 4 x23 ^2 + 60 x23 * x27 - 46 x23 * x31 + 42 x23 * x51 + 2 x23 * x52
   - 26 x23 * x55 + 58 x23 * x64 - 22 x23 * x67 - 24 x23 * x68
   + 22 x23 * x70 - 10 x23 * x73 + 70 x23 * x76 - 72 x23 * x79
   - 4 x23 * x80 + 6 x23 * x82 + 62 x23 * x94 + 13 x24 ^2 + 16 x24 * x28
   - 28 x24 * x29 - 62 x24 * x35 + 74 x24 * x39 + 44 x24 * x42
   + 72 x24 * x43 - 36 x24 * x56 + 74 x24 * x64 + 18 x24 * x65
   - 90 x24 * x66 + 84 x24 * x87 + 96 x24 * x93 - 10 x24 * x94
   + 98 x24 * x96 + 6 x24 * x98 - 46 x25 * x29 - 72 x25 * x41
   - 22 x25 * x47 + 32 x25 * x48 + 62 x25 * x50 - 30 x25 * x53
   + 24 x25 * x56 + 90 x25 * x62 + 14 x25 * x64 - 88 x25 * x67
   - 90 x25 * x71 + 20 x25 * x72 - 22 x25 * x76 + 90 x25 * x77
   - 84 x25 * x80 + 98 x25 * x81 + 68 x25 * x82 + 32 x25 * x84
   - 20 x25 * x86 + 46 x25 * x87 - 42 x25 * x88 - 18 x25 * x91
   - 84 x25 * x93 - 30 x26 * x33 - 42 x26 * x35 + 74 x26 * x41
   - 96 x26 * x42 - 22 x26 * x43 + 16 x26 * x44 + 38 x26 * x47
   + 48 x26 * x57 - 58 x26 * x65 - 82 x26 * x66 + 98 x26 * x68
   + 32 x26 * x71 + 74 x26 * x73 - 6 x26 * x77 + 24 x26 * x79
   + 20 x26 * x83 - 44 x26 * x94 - 44 x26 * x96 + 88 x27 * x36
   - 88 x27 * x43 - 32 x27 * x44 - 62 x27 * x48 + 2 x27 * x59
   - 10 x27 * x60 + 54 x27 * x66 - 26 x27 * x73 + 16 x27 * x80
   - 76 x27 * x87 - 12 x27 * x92 - 30 x27 * x94 - 20 x27 * x95
   - 32 x27 * x97 + 24 x28 * x31 - 4 x28 * x32 - 42 x28 * x34
   + 82 x28 * x37 + 62 x28 * x40 - 4 x28 * x42 - 66 x28 * x43 - 2 x28 * x49
   + 88 x28 * x55 - 16 x28 * x60 + 28 x28 * x62 - 4 x28 * x65
   + 20 x28 * x68 - 68 x28 * x72 - 84 x28 * x78 - 4 x28 * x79
   + 36 x28 * x92 - 12 x28 * x96 - 56 x29 * x31 - 56 x29 * x45
   - 10 x29 * x46 - 32 x29 * x47 - 8 x29 * x49 + 52 x29 * x56
   + 88 x29 * x58 + 72 x29 * x62 - 12 x29 * x65 - 50 x29 * x66
   + 56 x29 * x73 - 24 x29 * x97 + 16 x30 * x31 - 94 x30 * x41
   + 14 x30 * x51 + 82 x30 * x53 + 4 x30 * x54 - 22 x30 * x55
   + 48 x30 * x57 - 98 x30 * x69 - 12 x30 * x70 - 24 x30 * x71
   + 90 x30 * x72 - 84 x30 * x77 + 74 x30 * x80 - 38 x30 * x86
   + 94 x30 * x88 - 68 x30 * x95 + 62 x31 * x33 + 82 x31 * x35
   - 12 x31 * x43 + 74 x31 * x48 + 92 x31 * x51 - 8 x31 * x53
   + 40 x31 * x60 - 70 x31 * x65 + 84 x31 * x70 + 18 x31 * x76
   + 56 x31 * x78 + 90 x31 * x80 - 68 x31 * x87 - 38 x31 * x96
   - 62 x31 * x97 + 28 x32 * x36 + 16 x32 * x37 - 6 x32 * x40
   + 60 x32 * x44 + 82 x32 * x46 + 22 x32 * x48 + 28 x32 * x50
   + 60 x32 * x51 + 78 x32 * x52 + 98 x32 * x53 - 38 x32 * x54
   - 6 x32 * x55 - 38 x32 * x58 - 84 x32 * x61 + 12 x32 * x72
   + 90 x32 * x77 + 44 x32 * x85 + 72 x32 * x87 - 30 x32 * x89
   + 22 x32 * x90 + 34 x32 * x91 - 66 x32 * x93 - 60 x32 * x94
   + 26 x32 * x96 - 30 x32 * x99 + 23 x33 ^2 - 2 x33 * x38 - 66 x33 * x41
   + 14 x33 * x48 + 4 x33 * x50 - 34 x33 * x51 - 32 x33 * x53
   + 98 x33 * x57 - 66 x33 * x58 - 22 x33 * x60 - 12 x33 * x66
   - 18 x33 * x67 + 80 x33 * x69 - 16 x33 * x70 + 86 x33 * x73
   + 82 x33 * x75 + 50 x33 * x78 + 60 x33 * x80 - 78 x33 * x81
   + 4 x33 * x83 + 88 x33 * x84 + 6 x33 * x85 + 20 x33 * x86 - 36 x33 * x87
   - 56 x33 * x92 - 64 x34 * x48 + 36 x34 * x50 - 92 x34 * x51
   - 78 x34 * x53 + 14 x34 * x59 + 70 x34 * x61 + 20 x34 * x63
   - 72 x34 * x73 + 44 x34 * x77 - 94 x34 * x88 - 96 x34 * x90
   + 30 x34 * x92 + 96 x34 * x98 + 88 x34 * x99 - 24 x35 * x36
   - 24 x35 * x37 - 28 x35 * x40 - 72 x35 * x43 + 90 x35 * x45
   + 12 x35 * x50 - 18 x35 * x51 + 58 x35 * x57 + 50 x35 * x61
   - 42 x35 * x63 + 36 x35 * x64 + 88 x35 * x71 + 50 x35 * x81
   + 78 x35 * x92 + 58 x36 * x38 - 54 x36 * x45 + 10 x36 * x53
   - 38 x36 * x56 - 24 x36 * x67 - 42 x36 * x72 - 72 x36 * x73
   - 86 x36 * x74 + 92 x36 * x80 + 4 x36 * x85 - 48 x36 * x88
   - 92 x36 * x96 + 56 x37 * x41 - 94 x37 * x45 - 72 x37 * x47
   + 98 x37 * x48 - 98 x37 * x65 - 84 x37 * x73 - 26 x37 * x76
   + 42 x37 * x77 + 98 x37 * x81 + 12 x37 * x88 + 64 x38 * x42
   - 58 x38 * x51 - 72 x38 * x54 - 28 x38 * x57 - 96 x38 * x59
   + 68 x38 * x70 + 62 x38 * x71 - 74 x38 * x72 + 46 x38 * x73
   + 50 x38 * x79 - 96 x38 * x83 - 80 x38 * x99 + 26 x39 * x40
   + 76 x39 * x41 - 30 x39 * x47 - 42 x39 * x50 + 66 x39 * x54
   - 26 x39 * x56 - 54 x39 * x58 + 4 x39 * x60 - 16 x39 * x67
   - 86 x39 * x68 + 82 x39 * x73 + 2 x39 * x78 - 2 x39 * x81 - 96 x39 * x86
   - 64 x39 * x91 + 28 x39 * x92 - 94 x39 * x93 - 76 x39 * x96 - 35 x40 ^2
   - 4 x40 * x41 + 88 x40 * x51 + 92 x40 * x58 - 96 x40 * x62
   - 58 x40 * x63 - 32 x40 * x65 - 62 x40 * x68 - 46 x40 * x74
   - 42 x40 * x75 + 44 x40 * x76 + 14 x40 * x77 - 20 x40 * x87
   - 48 x40 * x94 - 58 x40 * x99 - 36 x41 ^2 + 66 x41 * x42 - 52 x41 * x45
   - 90 x41 * x47 + 34 x41 * x51 + 84 x41 * x58 + 12 x41 * x63
   + 28 x41 * x74 + 58 x41 * x75 + 54 x41 * x81 - 86 x41 * x86
   - 74 x41 * x88 + 16 x41 * x91 + 70 x41 * x94 + 2 x41 * x97
   - 92 x42 * x48 + 8 x42 * x50 + 30 x42 * x53 - 24 x42 * x54
   - 16 x42 * x59 - 38 x42 * x61 + 50 x42 * x63 + 80 x42 * x65
   + 84 x42 * x67 - 68 x42 * x69 + 60 x42 * x84 - 48 x42 * x85
   - 32 x42 * x86 + 36 x42 * x90 + 48 x42 * x94 - 16 x42 * x95
   + 14 x43 * x52 + 64 x43 * x78 - 78 x43 * x79 - 82 x43 * x85
   + 10 x43 * x86 + 6 x43 * x89 + 54 x43 * x92 + 56 x43 * x95
   - 66 x43 * x98 - 96 x43 * x99 + 36 x44 * x46 + 52 x44 * x47
   - 4 x44 * x50 + 98 x44 * x51 - 60 x44 * x55 - 44 x44 * x56
   - 14 x44 * x57 + 10 x44 * x58 - 46 x44 * x63 + 44 x44 * x64
   - 56 x44 * x74 - 4 x44 * x75 + 72 x44 * x78 + 28 x44 * x85
   + 96 x44 * x86 - 38 x44 * x94 - 8 x45 ^2 + 76 x45 * x47 + 68 x45 * x49
   + 4 x45 * x50 + 82 x45 * x52 - 30 x45 * x54 + 42 x45 * x56
   + 34 x45 * x60 + 70 x45 * x65 + 34 x45 * x67 + 58 x45 * x68
   + 42 x45 * x69 + 78 x45 * x71 - 94 x45 * x73 + 26 x45 * x76
   - 22 x45 * x77 - 44 x45 * x80 - 40 x45 * x84 + 70 x45 * x96
   + 98 x45 * x97 + 24 x45 * x98 - 16 x46 * x50 + 16 x46 * x57
   + 56 x46 * x60 - 28 x46 * x61 - 60 x46 * x67 + 30 x46 * x70
   + 64 x46 * x72 + 80 x46 * x73 + 96 x46 * x74 + 14 x46 * x77
   + 4 x46 * x83 + 54 x46 * x87 - 60 x46 * x88 - 12 x47 * x50
   - 54 x47 * x52 + 66 x47 * x64 + 40 x47 * x67 + 66 x47 * x75
   - 86 x47 * x78 - 72 x47 * x82 + 48 x47 * x92 + 64 x47 * x96
   - 48 x48 * x54 + 52 x48 * x60 + 98 x48 * x63 + 96 x48 * x70
   + 26 x48 * x75 + 40 x48 * x77 - 28 x48 * x78 - 28 x48 * x81
   + 32 x48 * x82 - 64 x48 * x85 - 52 x48 * x89 - 38 x48 * x91
   + 46 x48 * x94 + 78 x48 * x95 + 12 x48 * x99 + 27 x49 ^2 + 6 x49 * x51
   + 58 x49 * x53 - 96 x49 * x58 - 20 x49 * x60 + 52 x49 * x68
   - 60 x49 * x73 - 26 x49 * x75 - 58 x49 * x78 - 90 x49 * x81
   + 64 x49 * x85 - 48 x49 * x86 + 74 x49 * x92 + 2 x49 * x94
   - 54 x49 * x98 + 14 x50 * x51 + 56 x50 * x54 - 74 x50 * x61
   + 54 x50 * x62 + 94 x50 * x69 + 6 x50 * x70 - 30 x50 * x78 - 4 x50 * x82
   + 60 x50 * x83 - 78 x50 * x88 + 16 x50 * x90 - 42 x50 * x91
   - 62 x50 * x93 + 70 x50 * x95 + 96 x50 * x96 + 2 x50 * x97
   - 36 x50 * x99 + 62 x51 * x58 + 8 x51 * x59 + 62 x51 * x60
   + 64 x51 * x65 + 38 x51 * x82 + 94 x51 * x83 - 10 x51 * x84
   + 94 x51 * x85 + 68 x51 * x91 + 98 x51 * x98 + 42 x51 * x99
   - 32 x52 * x54 + 66 x52 * x61 + 38 x52 * x62 - 46 x52 * x66
   + 42 x52 * x69 - 48 x52 * x70 + 86 x52 * x71 - 20 x52 * x73
   + 24 x52 * x74 + 72 x52 * x76 - 30 x52 * x80 + 28 x52 * x82
   + 20 x52 * x85 + 60 x52 * x87 - 60 x52 * x92 + 30 x52 * x98
   + 24 x53 * x56 - 64 x53 * x58 - 44 x53 * x60 - 72 x53 * x61
   - 76 x53 * x63 + 14 x53 * x68 + 34 x53 * x70 - 40 x53 * x78
   + 84 x53 * x79 + 98 x53 * x84 + 22 x53 * x97 + 70 x53 * x98
   + 40 x54 * x58 - 40 x54 * x75 - 66 x54 * x79 + 72 x54 * x88
   - 8 x54 * x91 + 26 x54 * x96 - 66 x54 * x98 - 72 x55 * x60
   + 76 x55 * x63 + 4 x55 * x64 - 80 x55 * x71 - 32 x55 * x75
   - 92 x55 * x76 - 76 x55 * x83 + 64 x55 * x85 - 18 x55 * x87
   - 82 x55 * x88 - 2 x55 * x94 + 98 x55 * x95 - 36 x55 * x96
   - 46 x56 * x73 + 32 x56 * x74 - 38 x56 * x76 + 44 x56 * x77
   + 86 x56 * x79 + 18 x56 * x82 + 84 x56 * x83 + 36 x56 * x84
   - 16 x56 * x88 - 48 x56 * x89 - 42 x56 * x91 - 34 x57 * x65
   + 4 x57 * x71 + 16 x57 * x73 + 86 x57 * x75 - 12 x57 * x76
   - 30 x57 * x79 + 78 x57 * x82 - 6 x57 * x86 + 52 x57 * x87
   - 56 x57 * x89 + 78 x57 * x94 - 94 x57 * x98 - 60 x57 * x99
   + 72 x58 * x61 + 4 x58 * x62 - 96 x58 * x71 - 62 x58 * x75
   + 34 x58 * x79 - 54 x58 * x88 - 58 x58 * x95 + 4 x59 ^2 - 32 x59 * x60
   - 54 x59 * x62 - 50 x59 * x64 - 24 x59 * x70 + 66 x59 * x77
   - 20 x59 * x78 - 40 x59 * x79 - 82 x59 * x86 + 30 x59 * x88
   - 44 x59 * x89 - 46 x60 * x62 - 42 x60 * x64 + 34 x60 * x66
   + 86 x60 * x73 + 50 x60 * x76 - 70 x60 * x78 + 84 x60 * x80
   + 68 x60 * x81 + 52 x60 * x87 - 82 x60 * x89 - 68 x60 * x90
   - 28 x60 * x92 + 52 x60 * x94 + 96 x60 * x96 + 12 x61 ^2 + 2 x61 * x64
   - 90 x61 * x65 - 16 x61 * x68 - 32 x61 * x69 - 82 x61 * x74
   - 60 x61 * x75 + 86 x61 * x80 + 94 x61 * x81 - 36 x61 * x93
   - 18 x61 * x97 + 92 x62 * x71 - 90 x62 * x74 + 38 x62 * x75
   - 74 x62 * x76 - 12 x62 * x78 + 20 x62 * x79 + 14 x62 * x80
   + 78 x62 * x84 - 74 x62 * x95 - 66 x62 * x97 - 18 x62 * x98
   + 52 x62 * x99 + 74 x63 * x66 - 28 x63 * x72 + 46 x63 * x76
   - 84 x63 * x81 - 76 x63 * x86 - 54 x63 * x87 - 86 x63 * x89
   + 46 x63 * x95 - 20 x63 * x96 - 22 x63 * x99 - 30 x64 * x70
   - 26 x64 * x93 - 62 x64 * x96 - 66 x65 * x68 - 80 x65 * x71
   + 44 x65 * x72 + 40 x65 * x74 + 70 x65 * x84 - 68 x65 * x88
   + 16 x65 * x89 - 84 x65 * x94 + 12 x65 * x95 + 82 x66 * x67
   + 32 x66 * x73 - 76 x66 * x74 - 52 x66 * x77 + 24 x66 * x79
   + 52 x66 * x90 - 80 x66 * x91 - 16 x66 * x92 - 14 x67 * x70
   + 52 x67 * x71 + 72 x67 * x72 - 94 x67 * x80 + 8 x67 * x81
   + 52 x67 * x82 + 54 x67 * x88 - 44 x67 * x92 + 2 x67 * x95 - x68 ^2
   - 72 x68 * x70 - 96 x68 * x75 + 38 x68 * x78 - 86 x68 * x79
   + 4 x68 * x81 + 88 x68 * x83 + 30 x68 * x86 - 46 x68 * x91
   + 58 x68 * x92 + 92 x68 * x99 - 54 x69 * x72 - 90 x69 * x73
   + 66 x69 * x75 + 56 x69 * x76 - 6 x69 * x77 + 36 x69 * x83
   - 24 x69 * x84 + 34 x69 * x92 - 62 x69 * x93 + 90 x69 * x94
   + 56 x69 * x95 + 76 x69 * x99 + 6 x70 ^2 + 60 x70 * x72 + 94 x70 * x81
   + 58 x70 * x85 - 8 x70 * x90 + 86 x70 * x94 + 56 x70 * x97
   - 88 x71 * x73 - 64 x71 * x77 - 60 x71 * x87 + 74 x71 * x90
   + 26 x71 * x98 + 6 x72 * x85 - 64 x72 * x88 + 14 x72 * x91
   + 22 x73 * x74 - 8 x73 * x78 - 14 x73 * x79 + 10 x73 * x85
   + 96 x73 * x95 - 18 x73 * x98 - 45 x74 ^2 - 62 x74 * x82 + 88 x74 * x85
   + 18 x74 * x88 - 48 x74 * x92 + 38 x74 * x93 - 38 x74 * x97
   + 50 x74 * x99 - 30 x75 * x77 - 86 x75 * x78 - 96 x75 * x84
   + 12 x75 * x87 - 16 x75 * x90 + 20 x75 * x91 - 82 x75 * x92 - 2 x76 ^2
   + 20 x76 * x88 - 52 x76 * x92 - 70 x76 * x97 - 20 x77 ^2 - 30 x77 * x80
   + 8 x77 * x84 + 82 x77 * x89 - 6 x77 * x90 - 96 x77 * x92 - 38 x77 * x94
   + 52 x78 * x82 - 96 x78 * x96 + 86 x79 * x82 + 56 x79 * x93
   + 24 x79 * x96 - 50 x79 * x99 - 88 x80 * x82 - 30 x80 * x88
   + 44 x80 * x89 + 62 x80 * x95 - 26 x80 * x97 + 16 x80 * x99
   + 2 x81 * x83 - 96 x81 * x88 + 46 x81 * x91 - 46 x81 * x95
   + 18 x82 * x86 - 44 x82 * x87 - 10 x82 * x92 + 26 x82 * x94
   - 10 x82 * x95 + 60 x82 * x96 - 32 x83 ^2 - 10 x83 * x90 + 50 x83 * x93
   - 76 x83 * x95 - 86 x83 * x96 + 33 x84 ^2 + 94 x84 * x86 + 6 x84 * x90
   + 88 x84 * x92 - 28 x84 * x93 - 50 x84 * x94 - 2 x84 * x95
   - 94 x85 * x88 + 52 x85 * x92 + 42 x85 * x96 - 4 x86 * x95
   - 28 x86 * x97 + 40 x87 * x90 + 8 x87 * x91 - 44 x87 * x95
   - 16 x87 * x96 + 2 x88 ^2 + 92 x88 * x89 + 26 x88 * x93 - 70 x88 * x95
   - 78 x88 * x96 + 82 x88 * x97 + 30 x88 * x99 - 54 x89 * x91
   - 14 x90 * x92 - 37 x91 ^2 - 54 x92 * x93 - 96 x92 * x94 - 42 x92 * x96
   + 86 x92 * x99 - 44 x93 * x94 - 14 x94 * x95 + 68 x96 * x97 - 18 x97 ^2
   + 2 x98 * x99 ] / 2 
Subject To
Bounds
 x0 <= 1
 x1 <= 1
 x2 <= 1
 x3 <= 1
 x4 <= 1
 x5 <= 1
 x6 <= 1
 x7 <= 1
 x8 <= 1
 x9 <= 1
 x10 <= 1
 x11 <= 1
 x12 <= 1
 x13 <= 1
 x14 <= 1
 x15 <= 1
 x16 <= 1
 x17 <= 1
 x18 <= 1
 x19 <= 1
 x20 <= 1
 x21 <= 1
 x22 <= 1
 x23 <= 1
 x24 <= 1
 x25 <= 1
 x26 <= 1
 x27 <= 1
 x28 <= 1
 x29 <= 1
 x30 <= 1
 x31 <= 1
 x32 <= 1
 x33 <= 1
 x34 <= 1
 x35 <= 1
 x36 <= 1
 x37 <= 1
 x38 <= 1
 x39 <= 1
 x40 <= 1
 x41 <= 1
 x42 <= 1
 x43 <= 1
 x44 <= 1
 x45 <= 1
 x46 <= 1
 x47 <= 1
 x48 <= 1
 x49 <= 1
 x50 <= 1
 x51 <= 1
 x52 <= 1
 x53 <= 1
 x54 <= 1
 x55 <= 1
 x56 <= 1
 x57 <= 1
 x58 <= 1
 x59 <= 1
 x60 <= 1
 x61 <= 1
 x62 <= 1
 x63 <= 1
 x64 <= 1
 x65 <= 1
 x66 <= 1
 x67 <= 1
 x68 <= 1
 x69 <= 1
 x70 <= 1
 x71 <= 1
 x72 <= 1
 x73 <= 1
 x74 <= 1
 x75 <= 1
 x76 <= 1
 x77 <= 1
 x78 <= 1
 x79 <= 1
 x80 <= 1
 x81 <= 1
 x82 <= 1
 x83 <= 1
 x84 <= 1
 x85 <= 1
 x86 <= 1
 x87 <= 1
 x88 <= 1
 x89 <= 1
 x90 <= 1
 x91 <= 1
 x92 <= 1
 x93 <= 1
 x94 <= 1
 x95 <= 1
 x96 <= 1
 x97 <= 1
 x98 <= 1
 x99 <= 1
End
